1069039
10,60,32,74,1,70,37,48,80,36,35,97,42,91,53,8,89,85,3,5,64,2,27,67,58,82,61,15,16,14,39,81,92,84,22,52,65,23,11,98,54,24,43,94,79,29,51,78,25,40,12,26,17,19,59,90,71,34,28,46,83,38,99,72,68,50,88,76,87,45,86,4,66,7,73,95,47,57,33,9,20,21,30,31,13,63,55,44,18,41,69,49,93,62,96,77,56,6,75